(set-logic ALL)
(set-option :produce-models true)
(define-fun-rec str.toLower ((x String)) String
  (ite (= x "")
      ""
      (let ((Head (str.at x 0)))
        (str.++ 
          (ite (and (<= 65 (str.to_code Head)) 
                     (<= (str.to_code Head) 90))
               (str.from_code (+ (str.to_code Head) 32))
               Head)
          (str.toLower (str.substr x 1 (- (str.len x) 1)))))))
(declare-fun sym175 () String)
(declare-fun sym113 () String)
(declare-fun sym135 () String)
(declare-fun sym20 () String)
(declare-fun sym160 () String)
(declare-fun sym150 () String)
(declare-fun sym195 () String)
(declare-fun sym185 () String)

(assert (not (= (str.toLower sym185 )(str.toLower "description" ))))
(assert (= (str.toLower sym160 )(str.toLower "description" )))
(assert (= (str.toLower sym113 )(str.toLower "database" )))
(assert (= (str.toLower sym135 )(str.toLower "name" )))
(assert (not (= (str.toLower sym150 )(str.toLower "name" ))))
(assert (not (= (str.toLower sym195 )(str.toLower "table" ))))
(assert (= (str.toLower sym20 )"html" ))
(assert (not (= (str.toLower sym20 )"sql" )))
(assert (not (= (str.toLower sym175 )(str.toLower "name" ))))
(check-sat)
(get-model)
(exit)
